
  32    4
  10   10   10   10

   0   0   0   0   0  12 2 4 6 7 8 9 11 13 18 19 20 21 
   1   0   1   1   1   7 31 30 28 27 17 16 3 
   6   0   2   3   2   4 29 26 12 5 
   5   1   4   5   0   5 28 26 25 14 12 
   7   2   5   4   0   4 25 24 15 10 
   2   0   9   4   9   5 27 25 24 23 22 
   7   0   3   3   4   3 28 24 16 
   2   3   6   0   3   3 29 23 14 
   6   6   0   6   4   3 27 26 22 
   1   2   5   0   4   2 23 14 
   4   7   0   5   2   2 30 16 
  10   6   8   7   0   2 24 22 
   3   4   3   0   5   1 15 
  10   0   2   8   4   1 22 
   2   0   2   2   5   1 23 
   1   2   4   0   4   1 23 
   3   5   8   3   0   1 22 
  10   6   4   0   2   1 25 
   5   0   2   2   7   1 25 
   2   4   3   1   0   1 24 
   7   0   3   3   3   1 24 
  10   0   3   6   5   1 32
   1   0   4   4   3   1 32
  10   4   0   3   4   1 32
   4   0   5   4   3   1 32
   8   0   4   5   6   1 32
   2   0   2   6   5   1 32
   3   0   4   3   3   1 32
   1   5   0   4   4   1 32
   9   4   4   5   0   1 32
   8   3   0   3   4   1 32
   0   0   0   0   0   0 
